Route #1: 33 30 28 27 26 32 
Route #2: 23 21 18 19 49 22 20 24 48 25 
Route #3: 14 12 11 15 16 9 10 13 17 
Route #4: 31 29 34 50 
Route #5: 2 45 5 41 43 
Route #6: 42 39 36 38 44 40 35 37 
Route #7: 47 7 6 8 46 3 1 4 
Objective: 68142.3
